
List of user-set options:

                                    Name   Value                used
                           compl_inf_tol = 1                     yes
                         constr_viol_tol = 1                     yes
                            dual_inf_tol = 1000                  yes
                           linear_solver = ma97                  yes
                              ma86_small = 1e-30                  no
                                  ma86_u = 0.0001                 no
                              ma97_order = best                  yes
                              ma97_small = 1e-30                 yes
                            ma97_switch1 = at_start              yes
                            ma97_switch2 = od_hd_reuse           yes
                                  ma97_u = 1e-06                 yes
                               ma97_umax = 0.5                   yes
                                max_iter = 1000                  yes
                    max_refinement_steps = 20                    yes
                    min_refinement_steps = 5                     yes
                                 mu_init = 1e-06                 yes
           mu_superlinear_decrease_power = 1.25                  yes
                   nlp_scaling_min_value = 1e-08                 yes
                        option_file_name = Preset_Case_786_pf.opt  yes
                             output_file = ./tmp/Preset_Case_786_pf.output  yes
                      print_user_options = yes                   yes
        required_infeasibility_reduction = 1                      no
                                     tol = 1e-08                 yes
                   warm_start_bound_frac = 1e-20                 yes
                   warm_start_bound_push = 1e-20                 yes
                   warm_start_init_point = yes                   yes
              warm_start_mult_bound_push = 1e-20                 yes
                warm_start_mult_init_max = 1e+40                 yes
             warm_start_slack_bound_frac = 1e-20                 yes
             warm_start_slack_bound_push = 1e-20                 yes

******************************************************************************
This program contains Ipopt, a library for large-scale nonlinear optimization.
 Ipopt is released as open source code under the Eclipse Public License (EPL).
         For more information visit http://projects.coin-or.org/Ipopt
******************************************************************************

This is Ipopt version 3.12.10, running with linear solver ma97.

Number of nonzeros in equality constraint Jacobian...:   123442
Number of nonzeros in inequality constraint Jacobian.:      213
Number of nonzeros in Lagrangian Hessian.............:    49069

Total number of variables............................:    31591
                     variables with only lower bounds:    12912
                variables with lower and upper bounds:    15130
                     variables with only upper bounds:        0
Total number of equality constraints.................:    31483
Total number of inequality constraints...............:       25
        inequality constraints with only lower bounds:        4
   inequality constraints with lower and upper bounds:        0
        inequality constraints with only upper bounds:       21

iter    objective    inf_pr   inf_du lg(mu)  ||d||  lg(rg) alpha_du alpha_pr  ls
   0 -5.3269635e+00 4.05e-03 1.02e+00  -6.0 0.00e+00    -  0.00e+00 0.00e+00   0
   1 -5.3312470e+00 8.73e+00 3.35e+01  -6.0 3.92e+05    -  8.20e-05 1.16e-03h  1
   2 -5.3312074e+00 8.73e+00 3.35e+01  -6.0 3.31e+03    -  1.14e-04 3.40e-05h  1
   3 -5.3284146e+00 8.72e+00 3.36e+01  -6.0 1.64e+04    -  1.01e-04 1.07e-03h  3
   4 -5.3267851e+00 8.71e+00 9.88e+01  -6.0 4.77e+03    -  1.72e-01 1.43e-03h  4
   5 -5.3263991e+00 8.71e+00 1.08e+02  -6.0 2.15e+03    -  1.89e-03 2.64e-04h  7
   6 -5.3263449e+00 8.70e+00 1.10e+02  -6.0 4.34e+03    -  3.39e-03 4.78e-05h 14
   7 -5.3263174e+00 8.70e+00 1.12e+02  -6.0 4.34e+03    -  3.49e-03 2.43e-05h 15
   8 -5.3232529e+00 8.67e+00 1.13e+02  -6.0 4.33e+03    -  8.09e-03 3.48e-03H  1
   9 -5.3228584e+00 8.67e+00 1.13e+02  -6.0 4.34e+03    -  4.77e-06 3.53e-04h  1
iter    objective    inf_pr   inf_du lg(mu)  ||d||  lg(rg) alpha_du alpha_pr  ls
  10 -5.3228127e+00 8.67e+00 1.15e+02  -6.0 4.25e+03    -  4.49e-03 5.41e-05H  1
  11 -5.3228121e+00 8.67e+00 1.15e+02  -6.0 4.34e+03    -  1.73e-07 4.91e-07h  2
  12 -5.2931438e+00 8.44e+00 1.02e+05  -6.0 4.19e+03    -  3.44e-06 2.63e-02h  5
  13r-5.2931438e+00 8.44e+00 9.99e+02   0.9 0.00e+00   2.0 0.00e+00 4.20e-09R  7
  14r-5.3178084e+00 8.44e+00 2.20e+03   0.9 7.79e+04    -  5.37e-09 4.58e-08f  1
  15 -5.3246951e+00 8.44e+00 5.03e+03  -6.0 8.62e+05    -  3.75e-03 3.24e-04h  1
  16 -5.3421386e+00 5.28e+01 1.18e+05  -6.0 2.95e+05    -  3.25e-04 7.01e-03h  1
  17 -5.3481859e+00 5.29e+01 1.18e+05  -6.0 1.79e+06    -  9.93e-04 1.35e-04h  1
  18 -5.4009424e+00 5.78e+01 1.17e+05  -6.0 6.81e+04    -  6.06e-03 1.17e-02h  1
  19 -5.5003763e+00 7.52e+01 1.15e+05  -6.0 1.26e+05    -  1.93e-03 1.53e-02h  1
iter    objective    inf_pr   inf_du lg(mu)  ||d||  lg(rg) alpha_du alpha_pr  ls
  20 -5.5009362e+00 7.51e+01 1.15e+05  -6.0 3.44e+04    -  2.63e-02 1.33e-03h  1
  21 -5.5139935e+00 7.30e+01 1.12e+05  -6.0 3.81e+04    -  3.01e-02 2.78e-02h  1
  22 -5.5125123e+00 7.27e+01 1.11e+05  -6.0 2.48e+04    -  8.37e-03 4.06e-03h  1
  23 -5.5092255e+00 7.23e+01 1.10e+05  -6.0 2.14e+04    -  4.73e-03 6.55e-03h  2
  24 -5.5064462e+00 7.19e+01 1.10e+05  -6.0 2.04e+04    -  8.30e-02 5.06e-03h  3
  25 -5.5007515e+00 7.12e+01 1.09e+05  -6.0 2.30e+04    -  1.96e-02 1.02e-02h  2
  26 -5.5006654e+00 7.12e+01 1.09e+05  -6.0 2.18e+04    -  8.59e-02 1.47e-04h  9
  27 -5.5006127e+00 7.12e+01 1.09e+05  -6.0 1.91e+04    -  7.70e-03 8.89e-05h 10
  28 -5.4992010e+00 7.10e+01 1.08e+05  -6.0 1.86e+04    -  2.38e-03 2.38e-03s 18
  29 -5.4862112e+00 6.94e+01 1.06e+05  -6.0 1.87e+04    -  2.19e-02 2.19e-02s 18
iter    objective    inf_pr   inf_du lg(mu)  ||d||  lg(rg) alpha_du alpha_pr  ls
  30 -5.4741291e+00 6.80e+01 1.04e+05  -6.0 1.99e+04    -  2.06e-02 2.06e-02s 18
  31 -5.4413920e+00 6.40e+01 9.77e+04  -6.0 1.87e+04    -  5.98e-02 5.98e-02s 18
  32r-5.4413920e+00 6.40e+01 1.00e+03   1.6 0.00e+00   1.5 0.00e+00 0.00e+00R  1
  33r-5.4481622e+00 6.40e+01 1.01e+03   1.6 2.17e+06    -  6.30e-08 1.68e-08f  1
  34r-5.4718891e+00 6.39e+01 1.00e+03   0.9 6.77e+04    -  3.16e-07 5.50e-07f  1
  35r-5.5008377e+00 6.39e+01 1.06e+03   0.9 7.03e+04    -  3.30e-06 8.02e-07f  1
  36 -5.5243347e+00 6.40e+01 3.76e+02  -6.0 2.07e+06    -  7.16e-04 1.26e-03h  1
  37 -5.5467512e+00 7.23e+01 3.75e+02  -6.0 2.26e+05    -  7.94e-06 3.51e-03h  1
  38 -5.5626087e+00 7.21e+01 3.75e+02  -6.0 3.20e+05    -  2.75e-04 2.63e-03h  1
  39 -5.5658664e+00 7.20e+01 3.74e+02  -6.0 1.43e+05    -  4.91e-03 1.67e-03h  1
iter    objective    inf_pr   inf_du lg(mu)  ||d||  lg(rg) alpha_du alpha_pr  ls
  40 -5.5819554e+00 7.10e+01 3.68e+02  -6.0 8.96e+04    -  1.40e-02 1.46e-02h  1
  41 -5.5768408e+00 7.00e+01 3.65e+02  -6.0 2.55e+04    -  3.81e-03 1.75e-02h  1
  42 -5.5666593e+00 6.85e+01 3.47e+02  -6.0 1.20e+04    -  6.79e-02 2.29e-02h  1
  43 -5.5038280e+00 6.26e+01 3.15e+02  -6.0 4.73e+03    -  4.88e-02 1.51e-01h  1
  44 -5.4983802e+00 6.01e+01 2.80e+02  -6.0 4.27e+03    -  1.73e-01 4.31e-02h  2
  45 -5.4908695e+00 5.56e+01 2.59e+02  -6.0 3.37e+03    -  5.79e-02 9.57e-02h  1
  46 -5.4957728e+00 3.79e+01 2.03e+02  -6.0 2.50e+03    -  9.90e-02 3.22e-01h  1
  47 -5.5068754e+00 3.53e+01 1.98e+02  -6.0 3.61e+03    -  5.80e-02 6.90e-02h  1
  48 -5.5472073e+00 3.69e+01 1.75e+02  -6.0 3.92e+03    -  2.45e-01 2.09e-01h  1
  49 -5.5614045e+00 3.63e+01 1.64e+02  -6.0 4.87e+03    -  2.02e-02 7.28e-02h  1
iter    objective    inf_pr   inf_du lg(mu)  ||d||  lg(rg) alpha_du alpha_pr  ls
  50 -5.5700758e+00 3.55e+01 1.58e+02  -6.0 5.24e+03    -  2.33e-01 4.51e-02h  1
  51 -5.6569763e+00 1.18e+02 2.18e+02  -6.0 5.48e+03    -  9.96e-02 4.56e-01h  1
  52 -5.6784204e+00 1.03e+02 2.11e+05  -6.0 4.54e+03    -  2.20e-03 1.55e-01h  1
  53 -5.6784657e+00 1.03e+02 2.11e+05  -6.0 4.29e+00   1.0 8.63e-05 3.63e-04h  1
  54 -5.6785078e+00 1.03e+02 2.11e+05  -6.0 4.29e+00   0.6 6.73e-04 4.32e-04h  1
  55 -5.6788320e+00 1.02e+02 2.10e+05  -6.0 4.58e+00   0.1 1.18e-03 4.32e-03h  1
  56 -5.6796788e+00 1.01e+02 2.07e+05  -6.0 4.48e+00  -0.4 2.09e-03 1.37e-02h  1
  57 -5.6798590e+00 1.00e+02 2.06e+05  -6.0 4.21e+00  -0.9 8.36e-03 5.37e-03h  1
  58 -5.6839375e+00 8.89e+01 1.82e+05  -6.0 4.29e+00  -1.3 5.23e-02 1.12e-01h  1
  59 -5.6928587e+00 6.81e+01 1.39e+05  -6.0 3.85e+00  -1.8 1.04e-01 2.34e-01h  1
iter    objective    inf_pr   inf_du lg(mu)  ||d||  lg(rg) alpha_du alpha_pr  ls
  60 -5.6941007e+00 6.64e+01 1.36e+05  -6.0 3.08e+00  -2.3 2.59e-01 2.43e-02h  1
  61 -5.7151360e+00 5.48e+01 1.12e+05  -6.0 4.06e+00  -2.8 1.48e-01 1.75e-01h  1
  62 -5.7261602e+00 4.29e+01 8.75e+04  -6.0 4.51e+00  -3.2 1.61e-02 2.18e-01h  1
  63 -5.7311595e+00 4.20e+01 8.59e+04  -6.0 1.26e+01  -3.7 8.48e-02 1.95e-02h  1
  64 -5.7498710e+00 2.87e+01 5.90e+04  -6.0 4.04e+00  -3.3 7.21e-01 3.18e-01h  1
  65 -5.7555314e+00 2.15e+01 4.42e+04  -6.0 5.75e+00  -3.8 5.18e-01 2.50e-01h  1
  66 -5.7570274e+00 2.04e+01 4.19e+04  -6.0 1.85e+01  -4.3 5.40e-01 5.34e-02h  1
  67 -5.7703590e+00 5.27e+00 1.08e+04  -6.0 3.40e+00  -3.8 1.00e+00 7.42e-01h  1
  68 -5.7715480e+00 4.24e+00 8.72e+03  -6.0 3.27e+00  -4.3 1.00e+00 1.95e-01h  1
  69 -5.7791119e+00 2.60e-01 1.09e+03  -6.0 1.10e+01  -4.8 1.00e+00 9.39e-01h  1
iter    objective    inf_pr   inf_du lg(mu)  ||d||  lg(rg) alpha_du alpha_pr  ls
  70 -5.7840771e+00 3.71e-02 1.57e+03  -6.0 1.82e+01  -5.3 1.00e+00 1.00e+00h  1
  71 -5.7897335e+00 8.66e-02 9.17e+02  -6.0 3.46e+01  -5.7 1.00e+00 7.77e-01h  1
  72 -5.7967513e+00 3.23e+00 9.08e+02  -6.0 4.45e+03    -  4.45e-02 7.76e-02h  1
  73 -5.8044694e+00 7.17e+01 3.88e+02  -6.0 3.54e+03    -  6.18e-02 6.26e-01h  1
  74 -5.8030415e+00 3.48e-02 3.24e+05  -6.0 2.51e+01  -5.3 2.21e-01 1.00e+00h  1
  75 -5.8063832e+00 2.54e-02 1.58e+02  -6.0 2.45e+01  -5.8 9.98e-01 1.00e+00h  1
  76 -5.8134304e+00 1.30e-01 2.04e+02  -6.0 5.56e+01  -6.3 1.00e+00 1.00e+00h  1
  77 -5.8208093e+00 2.45e-01 2.09e+02  -6.0 8.95e+02    -  3.33e-01 1.25e-01h  1
  78 -5.8255222e+00 1.92e+00 6.54e+03  -6.0 8.14e+02    -  1.00e+00 4.11e-01h  1
  79 -5.8326830e+00 2.43e+00 4.24e+03  -6.0 5.14e+02    -  1.00e+00 6.54e-01h  1
iter    objective    inf_pr   inf_du lg(mu)  ||d||  lg(rg) alpha_du alpha_pr  ls
  80 -5.8396522e+00 4.23e-01 1.87e+02  -6.0 1.67e+02    -  1.00e+00 1.00e+00h  1
  81 -5.8425798e+00 2.76e-01 4.44e+04  -6.0 8.89e+01    -  1.00e+00 3.99e-01h  1
  82 -5.8497022e+00 7.23e-01 1.27e+02  -6.0 9.55e+01    -  1.00e+00 1.00e+00h  1
  83 -5.8537034e+00 3.63e-01 2.49e+05  -6.0 2.27e+02    -  8.18e-01 3.38e-01h  1
  84 -5.8557900e+00 4.10e-01 1.10e+06  -6.0 4.40e+02    -  1.00e+00 1.25e-01h  1
  85r-5.8557900e+00 4.10e-01 1.00e+03  -0.4 0.00e+00    -  0.00e+00 1.94e-07R  2
  86r-5.8642297e+00 4.08e-01 1.00e+03  -0.4 1.22e+04    -  9.91e-06 3.35e-06f  1
  87 -5.8631925e+00 3.62e-01 8.46e+04  -6.0 4.52e+00    -  6.10e-02 1.13e-01h  1
  88 -5.8601458e+00 2.25e-01 1.78e+05  -6.0 4.02e+00    -  1.13e-01 3.79e-01h  1
  89 -5.8584351e+00 1.44e-01 1.14e+05  -6.0 2.58e+00    -  5.85e-01 3.60e-01h  1
iter    objective    inf_pr   inf_du lg(mu)  ||d||  lg(rg) alpha_du alpha_pr  ls
  90 -5.8555573e+00 1.55e-04 7.69e+00  -6.0 1.89e+00    -  9.58e-01 1.00e+00h  1
  91 -5.8572994e+00 4.07e-03 2.38e+01  -6.0 7.81e+00    -  9.32e-01 1.00e+00h  1
  92 -5.8671108e+00 1.26e-01 4.32e+01  -6.0 8.05e+01    -  4.85e-01 6.96e-01h  1
  93 -5.8671195e+00 1.25e-01 2.55e+02  -6.0 4.11e+01    -  9.18e-01 8.93e-03h  1
  94 -5.8721617e+00 5.83e-01 6.91e+01  -6.0 2.73e+02    -  3.50e-01 8.31e-01F  1
  95 -5.8808343e+00 2.30e-01 1.54e+01  -6.0 7.28e+01  -6.7 9.03e-01 1.00e+00h  1
  96 -5.8843984e+00 3.17e-01 1.76e+01  -6.0 2.48e+02  -7.2 7.87e-01 3.92e-01h  1
  97 -5.8867727e+00 4.70e-01 1.10e+02  -6.0 6.17e+03  -7.7 6.05e-02 1.19e-02h  1
  98 -5.8946666e+00 1.23e+00 2.46e+01  -6.0 4.57e+02  -7.3 9.69e-01 3.94e-01h  1
  99 -5.9041450e+00 6.93e-01 1.36e+04  -6.0 2.07e+02    -  6.62e-01 7.68e-01h  1
iter    objective    inf_pr   inf_du lg(mu)  ||d||  lg(rg) alpha_du alpha_pr  ls
 100 -5.9180547e+00 1.01e+00 1.38e+04  -6.0 1.89e+02    -  4.53e-01 1.00e+00h  1
 101 -5.9223536e+00 1.11e+00 9.94e+04  -6.0 3.20e+03  -7.7 4.54e-02 2.02e-02h  1
 102 -5.9300220e+00 1.07e+00 4.22e+05  -6.0 3.11e+02    -  6.53e-01 3.78e-01h  1
 103r-5.9300220e+00 1.07e+00 1.00e+03   0.0 0.00e+00    -  0.00e+00 2.38e-07R  2
 104r-5.9460569e+00 1.07e+00 1.00e+03   0.0 1.25e+04    -  6.09e-06 1.67e-06f  1
 105 -5.9457169e+00 1.05e+00 5.45e+05  -6.0 1.13e+01    -  3.57e-01 1.88e-02h  1
 106 -5.9362404e+00 5.94e-01 1.31e+07  -6.0 1.16e+01    -  1.88e-02 4.36e-01h  1
 107 -5.9362893e+00 5.11e-01 1.12e+07  -6.0 8.37e+00    -  5.71e-01 1.39e-01h  1
 108 -5.9263580e+00 1.21e-02 2.51e+01  -6.0 7.51e+00    -  7.86e-01 1.00e+00h  1
 109 -5.9270343e+00 5.60e-03 1.92e+01  -6.0 1.64e+00    -  9.02e-01 5.41e-01h  1
iter    objective    inf_pr   inf_du lg(mu)  ||d||  lg(rg) alpha_du alpha_pr  ls
 110 -5.9283176e+00 3.06e-03 6.27e+00  -6.0 8.12e+00    -  9.79e-01 1.00e+00f  1
 111 -5.9309153e+00 6.00e-01 9.44e+00  -6.0 1.52e+02    -  8.19e-01 3.70e-01h  1
 112 -5.9333888e+00 4.28e-01 9.03e+00  -6.0 1.33e+02    -  9.63e-01 5.00e-01h  2
 113 -5.9349384e+00 3.52e-01 2.34e+01  -6.0 2.32e+02    -  8.13e-01 2.44e-01h  2
 114 -5.9370772e+00 4.99e-01 1.50e+01  -6.0 3.60e+02    -  1.91e-01 2.78e-01h  1
 115 -5.9349973e+00 4.78e-03 1.02e+04  -6.0 1.38e+01    -  2.31e-03 1.00e+00h  1
 116 -5.9344447e+00 3.07e-03 7.43e+01  -6.0 8.63e+00    -  1.00e+00 1.00e+00h  1
 117 -5.9344738e+00 3.82e-03 4.61e-01  -6.0 9.62e+00    -  1.00e+00 1.00e+00h  1
 118 -5.9344953e+00 1.77e-05 3.43e-04  -6.0 6.51e-01    -  1.00e+00 1.00e+00h  1
 119 -5.9344968e+00 4.71e-08 1.07e-06  -6.0 3.38e-02    -  1.00e+00 1.00e+00h  1
iter    objective    inf_pr   inf_du lg(mu)  ||d||  lg(rg) alpha_du alpha_pr  ls
 120 -5.9346006e+00 2.64e+00 2.64e+01  -7.5 5.77e+02    -  8.09e-01 7.18e-01h  1
 121 -5.9346035e+00 8.04e-01 1.37e+01  -7.5 1.84e+02    -  1.00e+00 8.41e-01h  1
 122 -5.9346000e+00 1.36e-02 2.09e-02  -7.5 2.85e+01    -  1.00e+00 1.00e+00h  1
 123 -5.9346000e+00 2.24e-07 2.18e-07  -7.5 1.32e-01    -  1.00e+00 1.00e+00h  1
 124 -5.9346015e+00 4.56e-03 7.03e-01  -9.0 1.99e+01    -  9.29e-01 8.53e-01h  1
 125 -5.9346018e+00 1.42e-04 2.86e-01  -9.0 2.99e+00    -  9.26e-01 1.00e+00h  1
 126 -5.9346018e+00 2.85e-10 4.22e-09  -9.0 9.08e-04    -  1.00e+00 1.00e+00h  1

Number of Iterations....: 126

                                   (scaled)                 (unscaled)
Objective...............:  -4.6364076381522983e+00   -5.9346017768349419e+00
Dual infeasibility......:   4.2166644848558396e-09    5.3973305406154744e-09
Constraint violation....:   2.8530647516820246e-10    2.8530647516820246e-10
Complementarity.........:   1.2621203470747526e-09    1.6155140442556833e-09
Overall NLP error.......:   4.2166644848558396e-09    5.3973305406154744e-09


Number of objective function evaluations             = 243
Number of objective gradient evaluations             = 125
Number of equality constraint evaluations            = 243
Number of inequality constraint evaluations          = 243
Number of equality constraint Jacobian evaluations   = 131
Number of inequality constraint Jacobian evaluations = 131
Number of Lagrangian Hessian evaluations             = 126
Total CPU secs in IPOPT (w/o function evaluations)   =    278.627
Total CPU secs in NLP function evaluations           =      5.290

EXIT: Optimal Solution Found.
